WARNING: for repeatability, setting FPU to use double precision
============================[ Problem Statistics ]=============================
|                                                                             |
|  Number of variables:            50                                         |
|  Number of clauses:             218                                         |
|  Parse time:                   0.00 s                                       |
|                                                                             |
============================[ Search Statistics ]==============================
| Conflicts |          ORIGINAL         |          LEARNT          | Progress |
|           |    Vars  Clauses Literals |    Limit  Clauses Lit/Cl |          |
===============================================================================
===============================================================================
restarts              : 1
conflicts             : 32             (22873 /sec)
decisions             : 49             (0.00 % random) (35025 /sec)
propagations          : 401            (286633 /sec)
conflict literals     : 75             (10.71 % deleted)
Memory used           : 20.00 MB
CPU time              : 0.001399 s

UNSATISFIABLE
